(set-info :source |printed by MathSAT|)
(declare-fun |id::x__param__@2| () (_ BitVec 32))
(declare-fun |id::x@2| () (_ BitVec 32))
(declare-fun |id::x__param__@3| () (_ BitVec 32))
(declare-fun |id::__retval__@2| () (_ BitVec 32))
(declare-fun |id::x@3| () (_ BitVec 32))
(declare-fun |id::x__param__@4| () (_ BitVec 32))
(declare-fun |id::x@4| () (_ BitVec 32))
(declare-fun |id::x__param__@5| () (_ BitVec 32))
(declare-fun |id::x@5| () (_ BitVec 32))
(declare-fun |id::x__param__@6| () (_ BitVec 32))
(declare-fun |id::x@6| () (_ BitVec 32))
(declare-fun |id::x__param__@7| () (_ BitVec 32))
(declare-fun |id::x@7| () (_ BitVec 32))
(declare-fun |id::x__param__@8| () (_ BitVec 32))
(declare-fun |id::x@8| () (_ BitVec 32))
(declare-fun |id::x__param__@9| () (_ BitVec 32))
(declare-fun |id::x@9| () (_ BitVec 32))
(declare-fun |id::x__param__@10| () (_ BitVec 32))
(declare-fun |id::x@10| () (_ BitVec 32))
(declare-fun |id::x__param__@11| () (_ BitVec 32))
(declare-fun |id::x@11| () (_ BitVec 32))
(declare-fun |id::x__param__@12| () (_ BitVec 32))
(declare-fun |id::x@12| () (_ BitVec 32))
(declare-fun |id::x__param__@13| () (_ BitVec 32))
(declare-fun |id::x@13| () (_ BitVec 32))
(declare-fun |id::x__param__@14| () (_ BitVec 32))
(declare-fun |id::x@14| () (_ BitVec 32))
(declare-fun |id::x__param__@15| () (_ BitVec 32))
(declare-fun |id::x@15| () (_ BitVec 32))
(declare-fun |id::x__param__@16| () (_ BitVec 32))
(declare-fun |id::x@16| () (_ BitVec 32))
(declare-fun |id::x__param__@17| () (_ BitVec 32))
(declare-fun |id::x@17| () (_ BitVec 32))
(declare-fun |id::iVar1@18| () (_ BitVec 32))
(declare-fun |id::__retval__@3| () (_ BitVec 32))
(declare-fun |id::__retval__@4| () (_ BitVec 32))
(declare-fun |id::__retval__@5| () (_ BitVec 32))
(declare-fun |id::__retval__@6| () (_ BitVec 32))
(declare-fun |id::__retval__@7| () (_ BitVec 32))
(declare-fun |id::__retval__@8| () (_ BitVec 32))
(declare-fun |id::__retval__@9| () (_ BitVec 32))
(declare-fun |id::__retval__@10| () (_ BitVec 32))
(declare-fun |id::__retval__@11| () (_ BitVec 32))
(declare-fun |id::__retval__@12| () (_ BitVec 32))
(declare-fun |id::__retval__@13| () (_ BitVec 32))
(declare-fun |id::__retval__@14| () (_ BitVec 32))
(declare-fun |id::__retval__@15| () (_ BitVec 32))
(declare-fun |id::__retval__@16| () (_ BitVec 32))
(declare-fun |id::__retval__@17| () (_ BitVec 32))
(declare-fun |id::iVar1@20| () (_ BitVec 32))
(declare-fun |id::iVar1@21| () (_ BitVec 32))
(declare-fun |id::iVar1@23| () (_ BitVec 32))
(declare-fun |id::iVar1@24| () (_ BitVec 32))
(declare-fun |id::iVar1@26| () (_ BitVec 32))
(declare-fun |id::iVar1@27| () (_ BitVec 32))
(declare-fun |id::iVar1@29| () (_ BitVec 32))
(declare-fun |id::iVar1@30| () (_ BitVec 32))
(declare-fun |id::iVar1@32| () (_ BitVec 32))
(declare-fun |id::iVar1@33| () (_ BitVec 32))
(declare-fun |id::iVar1@35| () (_ BitVec 32))
(declare-fun |id::iVar1@36| () (_ BitVec 32))
(declare-fun |id::iVar1@38| () (_ BitVec 32))
(declare-fun |id::iVar1@39| () (_ BitVec 32))
(declare-fun |id::iVar1@41| () (_ BitVec 32))
(declare-fun |id::iVar1@42| () (_ BitVec 32))
(declare-fun |id::iVar1@44| () (_ BitVec 32))
(declare-fun |id::iVar1@45| () (_ BitVec 32))
(declare-fun |id::iVar1@47| () (_ BitVec 32))
(declare-fun |id::iVar1@48| () (_ BitVec 32))
(declare-fun |id::iVar1@50| () (_ BitVec 32))
(declare-fun |id::iVar1@51| () (_ BitVec 32))
(declare-fun |id::iVar1@53| () (_ BitVec 32))
(declare-fun |id::iVar1@54| () (_ BitVec 32))
(declare-fun |id::iVar1@56| () (_ BitVec 32))
(declare-fun |id::iVar1@57| () (_ BitVec 32))
(declare-fun |id::iVar1@59| () (_ BitVec 32))
(declare-fun |id::iVar1@60| () (_ BitVec 32))
(declare-fun |id::iVar1@62| () (_ BitVec 32))
(declare-fun |id::iVar1@63| () (_ BitVec 32))
(declare-fun |main::iVar1@19| () (_ BitVec 32))
(assert (let ((.def_14 (= |id::x__param__@2| |id::x@2|)))(let ((.def_12 (= |id::x__param__@2| (_ bv15 32))))(let ((.def_481 (and .def_12 .def_14)))(let ((.def_15 (= |id::x@2| (_ bv0 32))))(let ((.def_19 (not .def_15)))(let ((.def_482 (and .def_19 .def_481)))(let ((.def_24 (bvadd (_ bv4294967295 32) |id::x@2|)))(let ((.def_26 (= .def_24 |id::x__param__@3|)))(let ((.def_483 (and .def_26 .def_482)))(let ((.def_62 (= |id::x__param__@3| |id::x@3|)))(let ((.def_484 (and .def_62 .def_483)))(let ((.def_63 (= |id::x@3| (_ bv0 32))))(let ((.def_65 (not .def_63)))(let ((.def_485 (and .def_65 .def_484)))(let ((.def_69 (bvadd (_ bv4294967295 32) |id::x@3|)))(let ((.def_71 (= .def_69 |id::x__param__@4|)))(let ((.def_486 (and .def_71 .def_485)))(let ((.def_73 (= |id::x__param__@4| |id::x@4|)))(let ((.def_487 (and .def_73 .def_486)))(let ((.def_74 (= |id::x@4| (_ bv0 32))))(let ((.def_76 (not .def_74)))(let ((.def_488 (and .def_76 .def_487)))(let ((.def_80 (bvadd (_ bv4294967295 32) |id::x@4|)))(let ((.def_82 (= .def_80 |id::x__param__@5|)))(let ((.def_489 (and .def_82 .def_488)))(let ((.def_84 (= |id::x__param__@5| |id::x@5|)))(let ((.def_490 (and .def_84 .def_489)))(let ((.def_85 (= |id::x@5| (_ bv0 32))))(let ((.def_87 (not .def_85)))(let ((.def_491 (and .def_87 .def_490)))(let ((.def_91 (bvadd (_ bv4294967295 32) |id::x@5|)))(let ((.def_93 (= .def_91 |id::x__param__@6|)))(let ((.def_492 (and .def_93 .def_491)))(let ((.def_95 (= |id::x__param__@6| |id::x@6|)))(let ((.def_493 (and .def_95 .def_492)))(let ((.def_96 (= |id::x@6| (_ bv0 32))))(let ((.def_98 (not .def_96)))(let ((.def_494 (and .def_98 .def_493)))(let ((.def_102 (bvadd (_ bv4294967295 32) |id::x@6|)))(let ((.def_104 (= .def_102 |id::x__param__@7|)))(let ((.def_495 (and .def_104 .def_494)))(let ((.def_106 (= |id::x__param__@7| |id::x@7|)))(let ((.def_496 (and .def_106 .def_495)))(let ((.def_107 (= |id::x@7| (_ bv0 32))))(let ((.def_109 (not .def_107)))(let ((.def_497 (and .def_109 .def_496)))(let ((.def_113 (bvadd (_ bv4294967295 32) |id::x@7|)))(let ((.def_115 (= .def_113 |id::x__param__@8|)))(let ((.def_498 (and .def_115 .def_497)))(let ((.def_117 (= |id::x__param__@8| |id::x@8|)))(let ((.def_499 (and .def_117 .def_498)))(let ((.def_118 (= |id::x@8| (_ bv0 32))))(let ((.def_120 (not .def_118)))(let ((.def_500 (and .def_120 .def_499)))(let ((.def_124 (bvadd (_ bv4294967295 32) |id::x@8|)))(let ((.def_126 (= .def_124 |id::x__param__@9|)))(let ((.def_501 (and .def_126 .def_500)))(let ((.def_128 (= |id::x__param__@9| |id::x@9|)))(let ((.def_502 (and .def_128 .def_501)))(let ((.def_129 (= |id::x@9| (_ bv0 32))))(let ((.def_131 (not .def_129)))(let ((.def_503 (and .def_131 .def_502)))(let ((.def_135 (bvadd (_ bv4294967295 32) |id::x@9|)))(let ((.def_137 (= .def_135 |id::x__param__@10|)))(let ((.def_504 (and .def_137 .def_503)))(let ((.def_139 (= |id::x__param__@10| |id::x@10|)))(let ((.def_505 (and .def_139 .def_504)))(let ((.def_140 (= |id::x@10| (_ bv0 32))))(let ((.def_142 (not .def_140)))(let ((.def_506 (and .def_142 .def_505)))(let ((.def_146 (bvadd (_ bv4294967295 32) |id::x@10|)))(let ((.def_148 (= .def_146 |id::x__param__@11|)))(let ((.def_507 (and .def_148 .def_506)))(let ((.def_150 (= |id::x__param__@11| |id::x@11|)))(let ((.def_508 (and .def_150 .def_507)))(let ((.def_151 (= |id::x@11| (_ bv0 32))))(let ((.def_153 (not .def_151)))(let ((.def_509 (and .def_153 .def_508)))(let ((.def_157 (bvadd (_ bv4294967295 32) |id::x@11|)))(let ((.def_159 (= .def_157 |id::x__param__@12|)))(let ((.def_510 (and .def_159 .def_509)))(let ((.def_161 (= |id::x__param__@12| |id::x@12|)))(let ((.def_511 (and .def_161 .def_510)))(let ((.def_162 (= |id::x@12| (_ bv0 32))))(let ((.def_164 (not .def_162)))(let ((.def_512 (and .def_164 .def_511)))(let ((.def_168 (bvadd (_ bv4294967295 32) |id::x@12|)))(let ((.def_170 (= .def_168 |id::x__param__@13|)))(let ((.def_513 (and .def_170 .def_512)))(let ((.def_172 (= |id::x__param__@13| |id::x@13|)))(let ((.def_514 (and .def_172 .def_513)))(let ((.def_173 (= |id::x@13| (_ bv0 32))))(let ((.def_175 (not .def_173)))(let ((.def_515 (and .def_175 .def_514)))(let ((.def_179 (bvadd (_ bv4294967295 32) |id::x@13|)))(let ((.def_181 (= .def_179 |id::x__param__@14|)))(let ((.def_516 (and .def_181 .def_515)))(let ((.def_183 (= |id::x__param__@14| |id::x@14|)))(let ((.def_517 (and .def_183 .def_516)))(let ((.def_184 (= |id::x@14| (_ bv0 32))))(let ((.def_186 (not .def_184)))(let ((.def_518 (and .def_186 .def_517)))(let ((.def_190 (bvadd (_ bv4294967295 32) |id::x@14|)))(let ((.def_192 (= .def_190 |id::x__param__@15|)))(let ((.def_519 (and .def_192 .def_518)))(let ((.def_194 (= |id::x__param__@15| |id::x@15|)))(let ((.def_520 (and .def_194 .def_519)))(let ((.def_195 (= |id::x@15| (_ bv0 32))))(let ((.def_197 (not .def_195)))(let ((.def_521 (and .def_197 .def_520)))(let ((.def_201 (bvadd (_ bv4294967295 32) |id::x@15|)))(let ((.def_203 (= .def_201 |id::x__param__@16|)))(let ((.def_522 (and .def_203 .def_521)))(let ((.def_205 (= |id::x__param__@16| |id::x@16|)))(let ((.def_523 (and .def_205 .def_522)))(let ((.def_206 (= |id::x@16| (_ bv0 32))))(let ((.def_208 (not .def_206)))(let ((.def_524 (and .def_208 .def_523)))(let ((.def_212 (bvadd (_ bv4294967295 32) |id::x@16|)))(let ((.def_214 (= .def_212 |id::x__param__@17|)))(let ((.def_525 (and .def_214 .def_524)))(let ((.def_216 (= |id::x__param__@17| |id::x@17|)))(let ((.def_526 (and .def_216 .def_525)))(let ((.def_217 (= |id::x@17| (_ bv0 32))))(let ((.def_527 (and .def_217 .def_526)))(let ((.def_221 (= |id::iVar1@18| (_ bv0 32))))(let ((.def_528 (and .def_221 .def_527)))(let ((.def_223 (= |id::__retval__@2| |id::iVar1@18|)))(let ((.def_529 (and .def_223 .def_528)))(let ((.def_346 (= |id::__retval__@2| |id::iVar1@20|)))(let ((.def_530 (and .def_346 .def_529)))(let ((.def_348 (bvadd (_ bv1 32) |id::iVar1@20|)))(let ((.def_350 (= .def_348 |id::iVar1@21|)))(let ((.def_531 (and .def_350 .def_530)))(let ((.def_351 (= |id::__retval__@3| |id::iVar1@21|)))(let ((.def_532 (and .def_351 .def_531)))(let ((.def_354 (= |id::__retval__@3| |id::iVar1@23|)))(let ((.def_533 (and .def_354 .def_532)))(let ((.def_356 (bvadd (_ bv1 32) |id::iVar1@23|)))(let ((.def_358 (= .def_356 |id::iVar1@24|)))(let ((.def_534 (and .def_358 .def_533)))(let ((.def_359 (= |id::__retval__@4| |id::iVar1@24|)))(let ((.def_535 (and .def_359 .def_534)))(let ((.def_362 (= |id::__retval__@4| |id::iVar1@26|)))(let ((.def_536 (and .def_362 .def_535)))(let ((.def_364 (bvadd (_ bv1 32) |id::iVar1@26|)))(let ((.def_366 (= .def_364 |id::iVar1@27|)))(let ((.def_537 (and .def_366 .def_536)))(let ((.def_367 (= |id::__retval__@5| |id::iVar1@27|)))(let ((.def_538 (and .def_367 .def_537)))(let ((.def_370 (= |id::__retval__@5| |id::iVar1@29|)))(let ((.def_539 (and .def_370 .def_538)))(let ((.def_372 (bvadd (_ bv1 32) |id::iVar1@29|)))(let ((.def_374 (= .def_372 |id::iVar1@30|)))(let ((.def_540 (and .def_374 .def_539)))(let ((.def_375 (= |id::__retval__@6| |id::iVar1@30|)))(let ((.def_541 (and .def_375 .def_540)))(let ((.def_378 (= |id::__retval__@6| |id::iVar1@32|)))(let ((.def_542 (and .def_378 .def_541)))(let ((.def_380 (bvadd (_ bv1 32) |id::iVar1@32|)))(let ((.def_382 (= .def_380 |id::iVar1@33|)))(let ((.def_543 (and .def_382 .def_542)))(let ((.def_383 (= |id::__retval__@7| |id::iVar1@33|)))(let ((.def_544 (and .def_383 .def_543)))(let ((.def_386 (= |id::__retval__@7| |id::iVar1@35|)))(let ((.def_545 (and .def_386 .def_544)))(let ((.def_388 (bvadd (_ bv1 32) |id::iVar1@35|)))(let ((.def_390 (= .def_388 |id::iVar1@36|)))(let ((.def_546 (and .def_390 .def_545)))(let ((.def_391 (= |id::__retval__@8| |id::iVar1@36|)))(let ((.def_547 (and .def_391 .def_546)))(let ((.def_394 (= |id::__retval__@8| |id::iVar1@38|)))(let ((.def_548 (and .def_394 .def_547)))(let ((.def_396 (bvadd (_ bv1 32) |id::iVar1@38|)))(let ((.def_398 (= .def_396 |id::iVar1@39|)))(let ((.def_549 (and .def_398 .def_548)))(let ((.def_399 (= |id::__retval__@9| |id::iVar1@39|)))(let ((.def_550 (and .def_399 .def_549)))(let ((.def_402 (= |id::__retval__@9| |id::iVar1@41|)))(let ((.def_551 (and .def_402 .def_550)))(let ((.def_404 (bvadd (_ bv1 32) |id::iVar1@41|)))(let ((.def_406 (= .def_404 |id::iVar1@42|)))(let ((.def_552 (and .def_406 .def_551)))(let ((.def_407 (= |id::__retval__@10| |id::iVar1@42|)))(let ((.def_553 (and .def_407 .def_552)))(let ((.def_410 (= |id::__retval__@10| |id::iVar1@44|)))(let ((.def_554 (and .def_410 .def_553)))(let ((.def_412 (bvadd (_ bv1 32) |id::iVar1@44|)))(let ((.def_414 (= .def_412 |id::iVar1@45|)))(let ((.def_555 (and .def_414 .def_554)))(let ((.def_415 (= |id::__retval__@11| |id::iVar1@45|)))(let ((.def_556 (and .def_415 .def_555)))(let ((.def_418 (= |id::__retval__@11| |id::iVar1@47|)))(let ((.def_557 (and .def_418 .def_556)))(let ((.def_420 (bvadd (_ bv1 32) |id::iVar1@47|)))(let ((.def_422 (= .def_420 |id::iVar1@48|)))(let ((.def_558 (and .def_422 .def_557)))(let ((.def_423 (= |id::__retval__@12| |id::iVar1@48|)))(let ((.def_559 (and .def_423 .def_558)))(let ((.def_426 (= |id::__retval__@12| |id::iVar1@50|)))(let ((.def_560 (and .def_426 .def_559)))(let ((.def_428 (bvadd (_ bv1 32) |id::iVar1@50|)))(let ((.def_430 (= .def_428 |id::iVar1@51|)))(let ((.def_561 (and .def_430 .def_560)))(let ((.def_431 (= |id::__retval__@13| |id::iVar1@51|)))(let ((.def_562 (and .def_431 .def_561)))(let ((.def_434 (= |id::__retval__@13| |id::iVar1@53|)))(let ((.def_563 (and .def_434 .def_562)))(let ((.def_436 (bvadd (_ bv1 32) |id::iVar1@53|)))(let ((.def_438 (= .def_436 |id::iVar1@54|)))(let ((.def_564 (and .def_438 .def_563)))(let ((.def_439 (= |id::__retval__@14| |id::iVar1@54|)))(let ((.def_565 (and .def_439 .def_564)))(let ((.def_442 (= |id::__retval__@14| |id::iVar1@56|)))(let ((.def_566 (and .def_442 .def_565)))(let ((.def_444 (bvadd (_ bv1 32) |id::iVar1@56|)))(let ((.def_446 (= .def_444 |id::iVar1@57|)))(let ((.def_567 (and .def_446 .def_566)))(let ((.def_447 (= |id::__retval__@15| |id::iVar1@57|)))(let ((.def_568 (and .def_447 .def_567)))(let ((.def_450 (= |id::__retval__@15| |id::iVar1@59|)))(let ((.def_569 (and .def_450 .def_568)))(let ((.def_452 (bvadd (_ bv1 32) |id::iVar1@59|)))(let ((.def_454 (= .def_452 |id::iVar1@60|)))(let ((.def_570 (and .def_454 .def_569)))(let ((.def_455 (= |id::__retval__@16| |id::iVar1@60|)))(let ((.def_571 (and .def_455 .def_570)))(let ((.def_458 (= |id::__retval__@16| |id::iVar1@62|)))(let ((.def_572 (and .def_458 .def_571)))(let ((.def_460 (bvadd (_ bv1 32) |id::iVar1@62|)))(let ((.def_462 (= .def_460 |id::iVar1@63|)))(let ((.def_573 (and .def_462 .def_572)))(let ((.def_463 (= |id::__retval__@17| |id::iVar1@63|)))(let ((.def_574 (and .def_463 .def_573)))(let ((.def_466 (= |id::__retval__@17| |main::iVar1@19|)))(let ((.def_575 (and .def_466 .def_574)))(let ((.def_467 (= |main::iVar1@19| (_ bv15 32))))(let ((.def_576 (and .def_467 .def_575))).def_576)))))))))))))))))))))))))))))))))))))))))))))))))))))))))))))))))))))))))))))))))))))))))))))))))))))))))))))))))))))))))))))))))))))))))))))))))))))))))))))))))))))))))))))))))))))))))))))))))))))))))))))))))))))))))))))))))))))))))))))))